/* Objective function */
min: - 0.0054fpdi - 0.0054fpdo + 0.05apdi + 0.05apdo + 0.0002pi + 0.0002po - 0.5fsi - 0.5fso;

apdi = 0.0 hi + 0.0 li + 10.63735 ri + -0.00714 ci + -1.50814 si + 0.0 ti + 0.11633 fTempIi + 0.00471 ami + -120.96916;
asi = 0.0 hi + -0.0 li + -0.0 ri + -0.0 ci + 0.0 si + 0.0 ti + -0.0 fTempIi + 5e-05 ami + 0.00857;
aTempOi = 0.0 hi + 0.0 li + 0.28938 ri + -0.03438 ci + -0.04391 si + 0.0 ti + 0.77898 fTempIi + -0.00015 ami + 6.80001;
fpdi = 0.0 hi + -0.0 li + 27.61104 ri + -37.10464 ci + -0.04868 si + 0.0 ti + -1.44606 fTempIi + 0.00017 ami + 768.59817;
fsi = 0.0 hi + -0.0 li + -0.0 ri + -0.08 ci + 0.0 si + 0.0 ti + -0.0 fTempIi + 0.0 ami + 3.15;
fTempOi = 0.0 hi + 0.0 li + -0.28676 ri + 0.03393 ci + 0.04356 si + 0.0 ti + 0.23629 fTempIi + -0.00014 ami + 9.9036;
pi = 0.0 hi + 0.0 li + 502.0375 ri + 3.075 ci + -52.223 si + 0.0 ti + 0.0 fTempIi + 0.0 ami + 2631.135;

apdo = 0.0 ho + 0.0 lo + 12.8379 ro + -0.00556 co + -1.93313 so + 0.0 to + 0.11796 fTempIo + 0.00556 amo + -159.07221;
aso = 0.0 ho + -0.0 lo + -8e-05 ro + -0.00017 co + -3e-05 so + -0.0 to + -0.00014 fTempIo + 5e-05 amo + 0.01669;
aTempOo = 0.0 ho + -0.0 lo + -0.29283 ro + 0.03613 co + 0.05888 so + 0.0 to + 0.7735 fTempIo + 0.00017 amo + -0.95404;
fpdo = 0.0 ho + -0.0 lo + 26.92028 ro + -36.89294 co + 0.06381 so + -0.0 to + -1.42442 fTempIo + -0.00019 amo + 762.83595;
fso = 0.0 ho + -0.0 lo + 0.0 ro + -0.08 co + 0.0 so + -0.0 to + 0.0 fTempIo + 0.0 amo + 3.15;
fTempOo = 0.0 ho + 0.0 lo + 0.28879 ro + -0.03786 co + -0.05729 so + -0.0 to + 0.23318 fTempIo + 0.00015 amo + 12.80925;
po = 0.0 ho + 0.0 lo + 433.2 ro + 3.1 co + -46.65714 so + 0.0 to + 0.0 fTempIo + -0.0 amo + 1758.24286;

/* Variable bounds */
aTempOi > 18.6;
1 =r6i + r8i + r10i + r12i + r14i;
ri =6r6i + 8r8i + 10r10i + 12r12i + 14r14i;
1 =s30i + s40i + s50i + s60i;
si =30s30i + 40s40i + 50s50i + 60s60i;
ti = 3;
apdi > 100;
apdi < 300;
asi > 0;
asi < 3;
aTempOi > 5;
aTempOi < 25;
fpdi > 100;
fpdi < 300;
fsi > 0;
fsi < 1.25;
fTempOi > 5;
fTempOi < 25;
pi > 0;
ri > 6;
ri < 14;
ci > 1;
ci < 23;
si > 25;
si < 60;
ti > 1;
ti < 3;
fTempIi > 5;
fTempIi < 25;

/* aTempOo < 11.4; */
1 =r6o + r8o + r10o + r12o + r14o;
ro =6r6o + 8r8o + 10r10o + 12r12o + 14r14o;
1 =s25o + s30o + s40o;
so =25s25o + 30s30o + 40s40o;
to = 1;
apdo > 100;
apdo < 300;
aso > 0;
aso < 3;
aTempOo > 5;
aTempOo < 25;
fpdo > 100;
fpdo < 300;
fso > 0;
fso < 1.25;
fTempOo > 5;
fTempOo < 25;
po > 0;
ro > 6;
ro < 14;
co > 1;
co < 23;
so > 25;
so < 60;
to > 1;
to < 3;
fTempIo > 5;
fTempIo < 25;
int hi,li,si,ti,ci,ri,ami;
int ho,lo,so,to,co,ro,amo;
bin s25i,s30i,s40i,s50i,s60i,r6i,r8i,r10i,r12i,r14i;
bin s25o,s30o,s40o,s50o,s60o,r6o,r8o,r10o,r12o,r14o;
